\ This file has been generated by DOcplex
\ ENCODING=ISO-8859-1
\Problem name: Qrandom17742_6.lp

Minimize
 obj: - 10652 x0 - 5326 x1 - 2663 x2 - 10628 x3 - 5314 x4 - 2657 x5 + [
      6112 x0^2 + 6112 x0*x1 + 3056 x0*x2 + 12160 x0*x3 + 6080 x0*x4
      + 3040 x0*x5 + 1528 x1^2 + 1528 x1*x2 + 6080 x1*x3 + 3040 x1*x4
      + 1520 x1*x5 + 382 x2^2 + 3040 x2*x3 + 1520 x2*x4 + 760 x2*x5 + 6144 x3^2
      + 6144 x3*x4 + 3072 x3*x5 + 1536 x4^2 + 1536 x4*x5 + 384 x5^2 ]/2 + 9310
Subject To

Bounds
 0 <= x0 <= 1
 0 <= x1 <= 1
 0 <= x2 <= 1
 0 <= x3 <= 1
 0 <= x4 <= 1
 0 <= x5 <= 1

Binaries
 x0 x1 x2 x3 x4 x5
End
